(declare-const delta_i Int)
(declare-const delta_j Int)
(declare-const delta_t Int)
(assert (exists
         ((|t'?1| Int) (|j'?2| Int) (|S1,0?3| Real) (|i'?4| Int)
            (KSUM1?5 Int) (|K1,0?6| Int) (K?7 Int) (|i'?8| Int) (|j'?9| Int)
            (j?10 Int) (n?11 Int) (i?12 Int) (tsteps?13 Int) (t?14 Int))
         (and (<= (- t?14) 0) (<= (+ (- tsteps?13) t?14 1) 0) (<= (- K?7) 0)
                (<= (- |K1,0?6|) 0) (= (+ |K1,0?6| (- K?7)) 0)
                (<= (+ KSUM1?5 (- K?7)) 0)
                (= (+ (- |S1,0?3|) |i'?4| (- |K1,0?6|)) 0)
                (= (+ (- KSUM1?5) |K1,0?6|) 0) (= (+ |S1,0?3| -1) 0)
                (or (and (= K?7 0) (= (+ (- |j'?2|) j?10) 0)
                           (= (+ (- |i'?4|) 1) 0))
                      (and (<= (+ (- K?7) 1) 0) (<= (+ (- n?11) 3) 0)
                             (= (+ n?11 (- |j'?2|) -1) 0)
                             (<= (+ (- |i'?4|) 2) 0)
                             (<= (+ (- |j'?2|) |i'?4|) 0)))
                (= (+ |i'?4| (- K?7) -1) 0) (<= (- K?7) 0) (< (- |i'?4|) 0)
                (< (+ n?11 (- |i'?4|) -2) 0) (= (+ |j'?9| (- |j'?2|)) 0)
                (= (+ |i'?8| (- |i'?4|)) 0) (= (+ |t'?1| (- t?14) -1) 0)
                (= delta_t (+ |t'?1| (- t?14)))
                (= delta_i (+ |i'?8| (- i?12)))
                (= delta_j (+ |j'?9| (- j?10))))))
(check-sat)
